
  17    4
   1   1   1   1

   0   0   0   0   0   8 2 3 4 5 7 8 15 16 
   9   0   1   1   0   4   14   12   10   6
   8   0   1   0   1   3   13   11   9
   7   0   0   1   0   3   13   10   9
   7   1   0   1   1   3   11   10   9
   8   0   0   1   0   2   11   9
   2   1   1   1   1   2   12   9
   8   0   1   0   1   2   10   9
   9   0   0   1   0   1   17
   4   0   1   1   1   1   17
   3   1   1   0   1   1   17
   6   0   1   0   1   1   17
   5   0   1   0   1   1   17
   10   0   1   1   1   1   17
   4   1   0   0   0   1   17
   2   1   1   0   0   1   17
   0   0   0   0   0   0 
